proyfinal/src/viki/013/experimentInOfficeAgust.take6.output/fda32029-a090-4837-9718-b183ebf820bb.als.dat
{'cnf.clauses': '118081',
 'cnf.totvars': '69608',
 'conflict literals': '971',
 'conflicts': '136',
 'decisions': '4182',
 'memused.mb': '18.83',
 'outcome': 'UNSAT',
 'propagations': '183834',
 'restarts': '2',
 'solver.msecs': 33,
 'task.msecs': 81}
