proyfinal/src/viki/013/experimentInOfficeAgust.take6.output/fda32029-a090-4837-9718-b183ebf820bb.als.out
Reading from standard input... Use '--help' for help.
============================[ Problem Statistics ]=============================
|                                                                             |
|  Number of variables:         69608                                         |
|  Number of clauses:          118081                                         |
|  Parse time:                   0.02 s                                       |
|                                                                             |
============================[ Search Statistics ]==============================
| Conflicts |          ORIGINAL         |          LEARNT          | Progress |
|           |    Vars  Clauses Literals |    Limit  Clauses Lit/Cl |          |
===============================================================================
|       100 |   56627    81404   201446 |    29848       93      8 | 18.649 % |
===============================================================================
restarts              : 2
conflicts             : 136            (4015 /sec)
decisions             : 4182           (0.00 % random) (123472 /sec)
propagations          : 183834         (5427635 /sec)
conflict literals     : 971            (19.55 % deleted)
Memory used           : 18.83 MB
CPU time              : 0.03387 s

UNSATISFIABLE
